
Gurobi 9.1.2 (win64, Java) logging started Fri Nov  5 14:17:37 2021

Academic license - for non-commercial use only - expires 2022-10-30
Gurobi Optimizer version 9.1.2 build v9.1.2rc0 (win64)
Thread count: 6 physical cores, 12 logical processors, using up to 12 threads
Optimize a model with 110 rows, 1000 columns and 2000 nonzeros
Model fingerprint: 0xe0b45280
Variable types: 0 continuous, 1000 integer (1000 binary)
Coefficient statistics:
  Matrix range     [1e+00, 1e+03]
  Objective range  [2e+01, 1e+03]
  Bounds range     [1e+00, 1e+00]
  RHS range        [1e+00, 3e+03]
Found heuristic solution: objective 31552.000000
Presolve time: 0.01s
Presolved: 110 rows, 1000 columns, 2000 nonzeros
Variable types: 0 continuous, 1000 integer (1000 binary)
Presolved: 110 rows, 1000 columns, 2000 nonzeros


Root relaxation: objective 4.275696e+04, 180 iterations, 0.00 seconds

    Nodes    |    Current Node    |     Objective Bounds      |     Work
 Expl Unexpl |  Obj  Depth IntInf | Incumbent    BestBd   Gap | It/Node Time

     0     0 42756.9583    0   12 31552.0000 42756.9583  35.5%     -    0s
H    0     0                    41668.000000 42756.9583  2.61%     -    0s
H    0     0                    42454.000000 42756.9583  0.71%     -    0s
H    0     0                    42518.000000 42756.9583  0.56%     -    0s
     0     0 42711.5706    0   22 42518.0000 42711.5706  0.46%     -    0s
H    0     0                    42561.000000 42711.5706  0.35%     -    0s
     0     0 42711.5706    0   25 42561.0000 42711.5706  0.35%     -    0s
     0     0 42690.2461    0   21 42561.0000 42690.2461  0.30%     -    0s
     0     0 42690.2461    0   22 42561.0000 42690.2461  0.30%     -    0s
     0     0 42690.2461    0   19 42561.0000 42690.2461  0.30%     -    0s
     0     0 42690.2461    0    9 42561.0000 42690.2461  0.30%     -    0s
     0     0 42690.2461    0   13 42561.0000 42690.2461  0.30%     -    0s
     0     0 42690.2461    0   19 42561.0000 42690.2461  0.30%     -    0s
     0     0 42690.2461    0   19 42561.0000 42690.2461  0.30%     -    0s
     0     0 42690.2461    0   24 42561.0000 42690.2461  0.30%     -    0s
     0     0 42690.2461    0   16 42561.0000 42690.2461  0.30%     -    0s
H    0     2                    42571.000000 42690.2461  0.28%     -    0s
     0     2 42690.2461    0   14 42571.0000 42690.2461  0.28%     -    0s
H 2033  1758                    42610.000000 42668.3712  0.14%   5.6    1s
H49936 33592                    42620.000000 42667.0741  0.11%   3.8    4s
 54899 35736 42659.0000  179    9 42620.0000 42667.0741  0.11%   3.7    5s
H127040 66686                    42622.000000 42667.0741  0.11%   3.6    9s
 140107 73380 42663.0000  248   15 42622.0000 42667.0741  0.11%   3.6   10s
 273811 174278 42667.0741  107   21 42622.0000 42667.0741  0.11%   3.3   15s
 387161 263271 42631.4286  255   14 42622.0000 42667.0741  0.11%   3.4   20s
 487849 342680 42665.8345  102   17 42622.0000 42667.0741  0.11%   3.3   25s
 593373 426094 42654.2192  203   13 42622.0000 42667.0741  0.11%   3.3   30s
 723374 529351 42635.5472  284   11 42622.0000 42667.0741  0.11%   3.3   35s
 853834 634854     cutoff  280      42622.0000 42667.0741  0.11%   3.3   40s
 991017 744964 42667.0741  104   18 42622.0000 42667.0741  0.11%   3.2   45s
 1123346 852682 42663.0000  133   15 42622.0000 42667.0741  0.11%   3.2   50s
 1265251 968631 42667.0741   98   18 42622.0000 42667.0741  0.11%   3.2   55s
 1397672 1075247 42667.0741  100   16 42622.0000 42667.0741  0.11%   3.2   60s
 1542404 1193801 42663.0000  250   14 42622.0000 42667.0741  0.11%   3.2   65s
 1681730 1305851 42658.6096  244   11 42622.0000 42667.0741  0.11%   3.2   70s
 1795918 1398587 42659.3518   89   19 42622.0000 42667.0741  0.11%   3.2   75s
 1905675 1486325 42629.6753  147   12 42622.0000 42667.0741  0.11%   3.2   80s
 2034870 1590631 42659.3518  110   19 42622.0000 42667.0741  0.11%   3.2   85s
 2151319 1685990 42663.0000  192   15 42622.0000 42667.0741  0.11%   3.2   90s
 2270393 1780987 42663.0000  141   15 42622.0000 42667.0741  0.11%   3.2   95s
 2399700 1884240     cutoff  189      42622.0000 42667.0741  0.11%   3.2  100s
H2417802 541190                    42663.000000 42667.0741  0.01%   3.2  101s

Cutting planes:
  Gomory: 8
  Cover: 13
  MIR: 3
  StrongCG: 6
  Flow cover: 5
  RLT: 5

Explored 2418109 nodes (7658217 simplex iterations) in 101.35 seconds
Thread count was 12 (of 12 available processors)

Solution count 10: 42663 42622 42620 ... 31552

Optimal solution found (tolerance 1.00e-04)
Best objective 4.266300000000e+04, best bound 4.266700000000e+04, gap 0.0094%
